Geographic Exponential Decay
20 231 80 168 296 156 212 96 16 145 310 57 13 261 88 0 281 295 67 41 82
p edge 320 627
e 0 41 22.0
e 0 137 17.0
e 0 47 82.0
e 0 70 66.0
e 0 45 41.0
e 0 91 55.0
e 0 310 51.0
e 0 259 62.0
e 0 146 34.0
e 0 67 15.0
e 0 181 79.0
e 0 159 20.0
e 0 262 86.0
e 0 201 91.0
e 0 129 60.0
e 0 132 10.0
e 0 12 99.0
e 1 87 2.0
e 1 51 7.0
e 1 60 10.0
e 2 8 11.0
e 3 30 1.0
e 4 315 6.0
e 4 260 4.0
e 4 262 1.0
e 5 252 5.0
e 6 44 2.0
e 6 178 4.0
e 7 133 3.0
e 7 183 1.0
e 8 106 11.0
e 8 177 7.0
e 9 59 1.0
e 10 87 1.0
e 11 51 4.0
e 11 54 1.0
e 12 41 87.0
e 12 13 7.0
e 13 179 22.0
e 13 26 25.0
e 13 300 25.0
e 13 197 15.0
e 13 217 82.0
e 13 15 48.0
e 13 116 33.0
e 13 106 100.0
e 13 71 60.0
e 13 216 90.0
e 13 276 98.0
e 13 248 46.0
e 13 191 61.0
e 13 147 42.0
e 13 277 54.0
e 13 58 47.0
e 14 207 1.0
e 16 25 47.0
e 16 71 69.0
e 16 133 53.0
e 16 40 97.0
e 16 235 24.0
e 16 308 23.0
e 16 228 40.0
e 16 277 78.0
e 16 63 75.0
e 16 39 93.0
e 16 178 80.0
e 16 67 78.0
e 16 236 87.0
e 16 35 3.0
e 16 41 88.0
e 16 74 73.0
e 16 121 87.0
e 17 109 2.0
e 18 261 29.0
e 19 194 1.0
e 19 182 1.0
e 20 293 2.0
e 21 177 2.0
e 22 19 1.0
e 23 163 1.0
e 24 250 10.0
e 24 53 10.0
e 24 251 20.0
e 27 159 1.0
e 28 181 1.0
e 29 230 23.0
e 29 102 1.0
e 31 291 11.0
e 32 293 1.0
e 33 266 2.0
e 34 275 5.0
e 34 105 2.0
e 35 264 2.0
e 35 166 2.0
e 35 119 19.0
e 35 256 14.0
e 36 314 10.0
e 37 244 9.0
e 38 109 10.0
e 38 76 10.0
e 38 43 9.0
e 41 318 78.0
e 41 123 17.0
e 41 151 46.0
e 41 11 15.0
e 41 196 70.0
e 41 59 46.0
e 41 57 67.0
e 41 275 30.0
e 41 179 93.0
e 41 120 24.0
e 41 297 98.0
e 41 235 63.0
e 41 197 52.0
e 41 153 38.0
e 42 19 1.0
e 42 15 1.0
e 42 7 10.0
e 45 252 18.0
e 45 56 8.0
e 46 141 1.0
e 46 238 5.0
e 47 74 3.0
e 48 15 3.0
e 48 89 5.0
e 49 65 2.0
e 50 245 5.0
e 50 280 18.0
e 52 282 1.0
e 55 164 1.0
e 55 128 1.0
e 57 152 67.0
e 57 142 21.0
e 57 248 90.0
e 57 265 62.0
e 57 166 34.0
e 57 10 85.0
e 57 247 47.0
e 57 291 48.0
e 57 312 79.0
e 57 264 43.0
e 57 74 80.0
e 57 143 53.0
e 57 176 92.0
e 57 42 94.0
e 57 234 51.0
e 57 72 75.0
e 61 149 40.0
e 61 235 44.0
e 61 6 45.0
e 61 71 16.0
e 61 307 35.0
e 61 193 32.0
e 61 265 28.0
e 61 33 24.0
e 61 312 9.0
e 62 81 5.0
e 63 74 16.0
e 63 269 23.0
e 63 1 15.0
e 63 0 38.0
e 64 22 1.0
e 66 280 16.0
e 67 192 59.0
e 67 193 38.0
e 67 124 36.0
e 67 132 9.0
e 67 135 42.0
e 67 131 4.0
e 67 158 78.0
e 67 9 1.0
e 67 213 69.0
e 67 266 59.0
e 67 202 55.0
e 67 306 58.0
e 67 267 40.0
e 67 273 74.0
e 67 317 76.0
e 68 129 1.0
e 69 153 7.0
e 70 234 12.0
e 70 281 47.0
e 72 227 7.0
e 72 62 4.0
e 73 70 11.0
e 73 75 22.0
e 73 27 1.0
e 73 239 6.0
e 73 273 16.0
e 77 76 1.0
e 78 317 1.0
e 79 285 1.0
e 80 56 49.0
e 80 186 49.0
e 80 37 85.0
e 80 55 7.0
e 80 231 66.0
e 80 266 58.0
e 80 145 55.0
e 80 149 48.0
e 80 212 78.0
e 80 136 84.0
e 80 81 46.0
e 80 31 10.0
e 80 288 66.0
e 80 228 71.0
e 80 34 97.0
e 80 126 13.0
e 80 155 95.0
e 81 179 12.0
e 82 299 29.0
e 82 216 42.0
e 82 129 42.0
e 82 279 90.0
e 82 41 81.0
e 82 141 12.0
e 82 17 23.0
e 82 268 96.0
e 82 88 52.0
e 82 98 30.0
e 82 211 96.0
e 82 181 33.0
e 82 263 49.0
e 82 36 38.0
e 82 35 10.0
e 82 172 30.0
e 82 59 38.0
e 83 304 1.0
e 83 22 6.0
e 84 228 1.0
e 84 113 2.0
e 85 135 8.0
e 86 69 1.0
e 88 210 40.0
e 88 66 71.0
e 88 222 39.0
e 88 83 85.0
e 88 163 48.0
e 88 229 88.0
e 88 298 10.0
e 88 310 69.0
e 88 283 100.0
e 88 294 100.0
e 88 241 86.0
e 88 284 21.0
e 88 73 23.0
e 88 279 67.0
e 88 231 62.0
e 88 151 77.0
e 90 263 1.0
e 91 270 1.0
e 91 243 1.0
e 92 29 5.0
e 92 99 2.0
e 92 303 1.0
e 93 195 1.0
e 93 27 3.0
e 93 97 11.0
e 94 44 18.0
e 94 177 4.0
e 94 9 13.0
e 94 300 18.0
e 94 220 10.0
e 95 175 1.0
e 95 39 5.0
e 96 190 43.0
e 96 231 51.0
e 96 71 51.0
e 96 72 79.0
e 96 258 11.0
e 96 306 48.0
e 96 164 77.0
e 96 47 95.0
e 96 81 46.0
e 96 270 7.0
e 96 112 92.0
e 96 188 12.0
e 96 276 13.0
e 96 176 70.0
e 96 67 39.0
e 96 296 32.0
e 96 302 22.0
e 100 179 23.0
e 100 158 6.0
e 101 64 16.0
e 101 118 10.0
e 101 221 24.0
e 101 80 6.0
e 101 199 3.0
e 102 160 3.0
e 103 187 7.0
e 104 53 4.0
e 104 148 5.0
e 106 192 3.0
e 107 54 16.0
e 107 21 22.0
e 107 100 4.0
e 107 157 23.0
e 107 70 7.0
e 108 314 3.0
e 110 47 1.0
e 110 7 1.0
e 111 124 1.0
e 113 23 12.0
e 113 125 4.0
e 113 47 10.0
e 113 22 3.0
e 114 140 2.0
e 115 301 9.0
e 117 278 13.0
e 117 167 4.0
e 117 82 73.0
e 117 50 2.0
e 117 253 13.0
e 121 150 11.0
e 121 219 1.0
e 122 90 1.0
e 127 198 3.0
e 127 86 3.0
e 130 142 3.0
e 130 14 2.0
e 131 263 2.0
e 131 217 2.0
e 134 138 2.0
e 135 157 8.0
e 137 259 14.0
e 138 127 1.0
e 139 181 1.0
e 141 21 2.0
e 142 56 5.0
e 144 121 9.0
e 145 153 53.0
e 145 111 20.0
e 145 162 61.0
e 145 65 61.0
e 145 126 48.0
e 145 253 44.0
e 145 308 34.0
e 145 206 72.0
e 145 63 8.0
e 145 64 12.0
e 145 254 80.0
e 145 147 33.0
e 145 92 19.0
e 145 293 49.0
e 145 247 2.0
e 145 82 82.0
e 147 134 18.0
e 147 257 3.0
e 147 48 16.0
e 150 93 8.0
e 151 160 5.0
e 152 289 14.0
e 152 16 52.0
e 152 109 4.0
e 152 255 5.0
e 154 81 1.0
e 154 188 12.0
e 154 43 11.0
e 156 273 21.0
e 156 87 59.0
e 156 35 74.0
e 156 16 11.0
e 156 40 67.0
e 156 102 49.0
e 156 245 35.0
e 156 292 49.0
e 156 182 3.0
e 156 246 74.0
e 156 45 71.0
e 156 96 19.0
e 156 173 89.0
e 156 247 78.0
e 156 214 89.0
e 156 114 18.0
e 156 129 49.0
e 161 237 4.0
e 161 17 11.0
e 161 215 8.0
e 164 73 43.0
e 164 176 40.0
e 164 178 46.0
e 164 313 41.0
e 164 127 18.0
e 164 232 10.0
e 164 39 22.0
e 165 106 3.0
e 165 206 3.0
e 168 254 34.0
e 168 152 30.0
e 168 128 66.0
e 168 25 57.0
e 168 96 38.0
e 168 103 65.0
e 168 188 90.0
e 168 116 92.0
e 168 130 21.0
e 168 18 87.0
e 168 43 55.0
e 168 281 79.0
e 168 282 50.0
e 168 83 85.0
e 168 37 76.0
e 168 231 19.0
e 168 205 63.0
e 169 178 2.0
e 170 86 1.0
e 171 50 2.0
e 171 67 68.0
e 174 184 5.0
e 179 11 20.0
e 180 174 1.0
e 184 238 9.0
e 184 218 5.0
e 185 245 1.0
e 185 295 78.0
e 186 72 1.0
e 187 32 23.0
e 187 164 9.0
e 187 66 22.0
e 187 192 19.0
e 189 53 7.0
e 189 244 1.0
e 189 197 1.0
e 200 211 21.0
e 200 0 77.0
e 200 123 18.0
e 200 188 6.0
e 200 13 57.0
e 201 196 4.0
e 201 277 7.0
e 202 315 21.0
e 202 244 15.0
e 202 220 48.0
e 202 26 19.0
e 203 313 1.0
e 204 94 13.0
e 208 151 12.0
e 209 153 3.0
e 210 220 30.0
e 212 306 96.0
e 212 223 84.0
e 212 253 23.0
e 212 182 96.0
e 212 10 15.0
e 212 29 98.0
e 212 191 31.0
e 212 295 32.0
e 212 273 97.0
e 212 62 27.0
e 212 87 26.0
e 212 309 80.0
e 212 288 59.0
e 212 257 70.0
e 212 19 63.0
e 212 187 53.0
e 213 89 10.0
e 213 83 11.0
e 214 265 2.0
e 216 141 24.0
e 216 24 20.0
e 216 285 2.0
e 220 274 24.0
e 220 12 38.0
e 220 190 7.0
e 220 142 36.0
e 220 197 42.0
e 220 175 13.0
e 223 229 4.0
e 224 163 1.0
e 225 127 5.0
e 226 20 9.0
e 226 59 42.0
e 226 290 13.0
e 226 38 1.0
e 226 236 25.0
e 226 34 15.0
e 226 176 40.0
e 226 82 93.0
e 226 173 11.0
e 230 279 22.0
e 230 316 2.0
e 230 159 16.0
e 230 167 11.0
e 231 4 40.0
e 231 242 16.0
e 231 10 8.0
e 231 256 22.0
e 231 175 56.0
e 231 298 56.0
e 231 40 64.0
e 231 182 32.0
e 231 7 67.0
e 231 41 46.0
e 231 46 87.0
e 231 55 72.0
e 231 203 88.0
e 233 191 1.0
e 237 113 21.0
e 239 225 11.0
e 239 308 6.0
e 240 212 94.0
e 242 73 20.0
e 242 299 1.0
e 246 162 1.0
e 246 259 11.0
e 249 197 4.0
e 250 200 15.0
e 251 75 2.0
e 251 133 14.0
e 251 35 13.0
e 251 314 8.0
e 252 312 17.0
e 252 140 3.0
e 252 17 6.0
e 257 286 2.0
e 258 225 2.0
e 258 297 1.0
e 259 130 10.0
e 259 103 19.0
e 260 95 1.0
e 261 84 36.0
e 261 165 81.0
e 261 130 54.0
e 261 34 7.0
e 261 66 65.0
e 261 309 62.0
e 261 200 5.0
e 261 128 32.0
e 261 296 89.0
e 261 60 18.0
e 261 85 82.0
e 261 131 76.0
e 261 267 71.0
e 261 227 34.0
e 261 259 20.0
e 261 20 41.0
e 269 177 12.0
e 269 226 36.0
e 269 117 18.0
e 269 242 11.0
e 271 72 11.0
e 272 161 8.0
e 272 63 8.0
e 272 67 81.0
e 274 221 4.0
e 275 245 7.0
e 278 308 2.0
e 280 103 12.0
e 280 198 18.0
e 280 49 4.0
e 281 136 75.0
e 281 87 98.0
e 281 144 41.0
e 281 246 73.0
e 281 146 62.0
e 281 275 73.0
e 281 287 42.0
e 281 80 22.0
e 281 159 15.0
e 281 140 41.0
e 281 137 8.0
e 281 294 19.0
e 281 101 93.0
e 281 282 40.0
e 281 190 96.0
e 287 88 7.0
e 289 76 1.0
e 290 291 6.0
e 292 54 3.0
e 295 30 6.0
e 295 296 3.0
e 295 25 42.0
e 295 68 29.0
e 295 84 86.0
e 295 132 70.0
e 295 131 77.0
e 295 216 72.0
e 295 97 30.0
e 295 20 73.0
e 295 297 25.0
e 295 291 51.0
e 295 77 32.0
e 295 85 17.0
e 295 56 94.0
e 296 306 7.0
e 296 318 60.0
e 296 195 39.0
e 296 54 57.0
e 296 126 11.0
e 296 26 38.0
e 296 60 59.0
e 296 272 69.0
e 296 132 6.0
e 296 287 70.0
e 296 171 95.0
e 296 81 14.0
e 296 238 36.0
e 296 297 59.0
e 299 79 2.0
e 301 18 11.0
e 301 113 10.0
e 304 95 3.0
e 305 284 1.0
e 307 14 1.0
e 310 28 73.0
e 310 246 39.0
e 310 214 54.0
e 310 291 36.0
e 310 294 20.0
e 310 61 16.0
e 310 99 41.0
e 310 270 11.0
e 310 302 5.0
e 310 296 61.0
e 310 58 21.0
e 310 53 67.0
e 310 295 97.0
e 310 241 10.0
e 310 286 15.0
e 311 69 2.0
e 316 151 8.0
e 316 253 10.0
e 318 131 1.0
e 319 133 1.0
e 319 260 11.0
e 319 147 4.0
